p cnf 142 278
3 5 -21 8 0
15 11 41 42 0
15 11 41 -42 0
15 11 -41 43 0
15 11 -41 -43 0
-22 37 4 12 0
-23 44 45 47 0
-23 44 45 -47 0
-23 44 -45 48 0
-23 44 -45 -48 0
-23 -44 46 49 0
-23 -44 46 -49 0
-23 -44 -46 50 0
-23 -44 -46 -50 0
-27 -18 -17 -14 0
-6 23 -38 -16 0
-13 -7 6 -23 0
-21 40 -26 5 0
-12 1 19 37 0
-22 -17 -14 -4 0
21 5 51 52 0
21 5 51 -52 0
21 5 -51 53 0
21 5 -51 -53 0
-7 13 54 55 0
-7 13 54 -55 0
-7 13 -54 56 0
-7 13 -54 -56 0
17 31 -14 25 0
25 -13 7 -31 0
10 -29 57 58 0
10 -29 57 -58 0
10 -29 -57 59 0
10 -29 -57 -59 0
-10 33 -32 29 0
17 -27 18 -14 0
-5 30 -20 -21 0
39 -34 24 36 0
-14 -40 -26 -17 0
31 25 -27 18 0
39 19 1 -24 0
-24 -11 39 -15 0
-24 -39 19 -1 0
-30 20 60 61 0
-30 20 60 -61 0
-30 20 -60 62 0
-30 20 -60 -62 0
-24 -39 40 -26 0
-19 -34 1 36 0
-27 -37 -12 18 0
-23 6 35 -2 0
39 26 -40 24 0
34 -11 -36 15 0
35 2 6 23 0
-18 35 2 -27 0
-33 32 63 64 0
-33 32 63 -64 0
-33 32 -63 65 0
-33 32 -63 -65 0
6 66 67 69 0
6 66 67 -69 0
6 66 -67 70 0
6 66 -67 -70 0
6 -66 68 71 0
6 -66 68 -71 0
6 -66 -68 72 0
6 -66 -68 -72 0
4 -22 24 39 0
-40 36 -34 26 0
-15 11 -2 35 0
33 -12 32 -37 0
-2 35 -18 27 0
9 28 33 32 0
35 2 7 -13 0
-2 35 20 30 0
-24 -4 -39 22 0
-4 -6 22 23 0
-22 16 4 38 0
3 29 -10 -8 0
9 28 15 -11 0
21 -40 26 -5 0
-40 -13 26 -7 0
36 39 34 -24 0
29 -9 28 -10 0
3 29 10 8 0
21 20 -5 30 0
10 33 29 32 0
28 16 -38 -9 0
5 -1 -21 19 0
-4 22 17 -14 0
8 -3 73 74 0
8 -3 73 -74 0
8 -3 -73 75 0
8 -3 -73 -75 0
-7 35 -2 -13 0
-38 16 7 -13 0
-12 -22 -4 37 0
-29 -15 -10 11 0
33 -9 -32 28 0
-8 21 -5 -3 0
-31 28 -9 25 0
6 -22 -23 4 0
7 23 13 -6 0
3 -8 -21 -5 0
-38 7 -16 13 0
-38 -32 16 33 0
6 -4 23 -22 0
11 36 -15 -34 0
-18 -12 37 -27 0
34 -32 36 33 0
20 14 30 -17 0
-32 -33 -9 -28 0
25 31 29 10 0
-31 25 -27 -18 0
-36 19 34 -1 0
7 -26 13 40 0
-23 38 6 16 0
-21 5 -12 -37 0
9 -16 28 -38 0
14 -18 -17 27 0
-14 -17 -31 25 0
-19 -8 1 -3 0
-36 34 40 -26 0
4 22 76 77 0
4 22 76 -77 0
4 22 -76 78 0
4 22 -76 -78 0
-25 -31 -13 -7 0
34 1 19 36 0
-38 16 -4 -22 0
37 -19 1 12 0
-3 -10 -29 -8 0
35 -20 30 2 0
34 -36 32 33 0
-27 -30 18 -20 0
27 -18 -31 -25 0
-14 -26 17 40 0
38 -16 79 80 0
38 -16 79 -80 0
38 -16 -79 81 0
38 -16 -79 -81 0
30 -20 -14 -17 0
6 -8 -3 -23 0
24 -39 82 83 0
24 -39 82 -83 0
24 -39 -82 84 0
24 -39 -82 -84 0
2 13 7 -35 0
-3 30 -8 20 0
8 -20 -30 3 0
-24 -40 -26 39 0
25 13 7 31 0
-28 16 -9 38 0
17 14 85 86 0
17 14 85 -86 0
17 14 -85 87 0
17 14 -85 -87 0
-37 -1 -12 19 0
-25 -31 -10 -29 0
-32 37 33 -12 0
-5 21 37 12 0
-13 7 6 23 0
9 31 28 25 0
-10 -28 -9 -29 0
-17 4 -22 14 0
-2 -35 88 89 0
-2 -35 88 -89 0
-2 -35 -88 90 0
-2 -35 -88 -90 0
-38 16 23 6 0
-26 -40 36 34 0
-26 -13 -40 7 0
-25 31 91 92 0
-25 31 91 -92 0
-25 31 -91 93 0
-25 31 -91 -93 0
-15 -11 35 2 0
5 -21 -20 -30 0
-8 -20 3 30 0
1 -19 39 24 0
3 -1 8 19 0
14 26 -40 -17 0
24 -15 11 39 0
-16 -4 22 -38 0
18 -35 2 -27 0
3 23 6 -8 0
-9 -28 -25 -31 0
2 23 -35 -6 0
-20 -18 -27 30 0
37 12 27 -18 0
-35 94 95 97 0
-35 94 95 -97 0
-35 94 -95 98 0
-35 94 -95 -98 0
-35 -94 96 99 0
-35 -94 96 -99 0
-35 -94 -96 100 0
-35 -94 -96 -100 0
28 9 29 10 0
-19 -1 101 102 0
-19 -1 101 -102 0
-19 -1 -101 103 0
-19 -1 -101 -103 0
-34 36 -33 -32 0
-21 1 -5 19 0
-6 -23 104 105 0
-6 -23 104 -105 0
-6 -23 -104 106 0
-6 -23 -104 -106 0
27 18 107 108 0
27 18 107 -108 0
27 18 -107 109 0
27 18 -107 -109 0
19 3 1 -8 0
-11 15 2 -35 0
-36 -39 -24 34 0
-11 -9 -15 28 0
2 -35 -30 -20 0
14 -17 -31 -25 0
40 26 110 111 0
40 26 110 -111 0
40 26 -110 112 0
40 26 -110 -112 0
-5 37 -21 -12 0
-7 16 -13 38 0
13 113 114 116 0
13 113 114 -116 0
13 113 -114 117 0
13 113 -114 -117 0
13 -113 115 118 0
13 -113 115 -118 0
13 -113 -115 119 0
13 -113 -115 -119 0
8 3 23 -6 0
2 120 121 123 0
2 120 121 -123 0
2 120 -121 124 0
2 120 -121 -124 0
2 -120 122 125 0
2 -120 122 -125 0
2 -120 -122 126 0
2 -120 -122 -126 0
-10 29 -31 25 0
-7 127 128 130 0
-7 127 128 -130 0
-7 127 -128 131 0
-7 127 -128 -131 0
-7 -127 129 132 0
-7 -127 129 -132 0
-7 -127 -129 133 0
-7 -127 -129 -133 0
32 33 -38 -16 0
37 12 -33 -32 0
-34 -36 134 135 0
-34 -36 134 -135 0
-34 -36 -134 136 0
-34 -36 -134 -136 0
9 -28 137 138 0
9 -28 137 -138 0
9 -28 -137 139 0
9 -28 -137 -139 0
-11 34 -15 36 0
-28 -9 -15 11 0
22 -37 -4 -12 0
38 16 -32 -33 0
-21 -26 -40 -5 0
39 -4 -24 -22 0
-30 17 -20 -14 0
29 -11 10 15 0
-29 -32 -33 -10 0
-11 -24 -39 15 0
12 -37 140 141 0
12 -37 140 -141 0
12 -37 -140 142 0
12 -37 -140 -142 0
29 -15 -10 -11 0
-19 1 -5 21 0
-18 30 27 20 0

